cantSalas = 4;
cantRamos = 54;
bloques = [2, 1, 2, 2, 1, 2, 1, 2, 1, 1, 1, 1, 2, 1, 1, 2, 1, 1, 2, 1, 1, 2, 1, 1, 2, 1, 1, 1, 2, 1, 1, 1, 2, 2, 1, 1, 1, 1, 1, 2, 1, 1, 1, 2, 2, 1, 2, 2, 1, 2, 1, 1, 1, 1];
capacidad = [77, 58, 74, 77];
prioridad = [7, 2, 4, 5, 3, 6, 4, 2, 2, 3, 10, 2, 5, 3, 2, 6, 5, 5, 1, 4, 6, 2, 1, 1, 1, 10, 1, 2, 5, 2, 8, 2, 4, 1, 5, 8, 4, 2, 3, 3, 6, 1, 1, 2, 4, 7, 2, 5, 3, 5, 6, 5, 1, 5];
interes = [40, 65, 72, 47, 45, 65, 60, 74, 51, 74, 47, 48, 40, 63, 72, 73, 75, 45, 68, 50, 62, 49, 57, 72, 59, 73, 76, 65, 45, 65, 43, 42, 63, 59, 80, 75, 60, 52, 79, 72, 50, 63, 75, 76, 41, 40, 46, 59, 68, 68, 61, 54, 66, 42];
disponibilidad = array2d(1..cantRamos, 1..35, [
  false, false, true, false, true, true, true, false, true, false, true, false, true, false, true, false, false, true, true, true, false, false, false, false, false, true, false, false, true, false, false, true, false, false, false,
  false, false, false, true, true, true, true, true, false, true, false, true, true, true, true, true, true, false, true, true, true, true, true, false, true, true, false, false, false, true, true, true, true, true, true,
  true, true, true, true, true, false, true, false, true, false, true, true, false, true, true, false, false, true, true, false, false, true, false, true, true, true, true, true, true, true, true, true, true, true, true,
  true, false, false, false, false, true, false, false, false, true, true, false, true, false, true, false, false, false, false, true, true, true, false, true, false, false, false, true, true, true, false, false, true, false, true,
  true, true, true, false, false, true, false, false, true, false, true, false, false, true, false, false, false, true, true, true, false, true, true, true, true, false, false, true, false, false, true, false, true, true, true,
  true, true, true, true, true, true, true, true, true, false, false, false, true, true, false, false, true, true, false, false, false, true, true, true, true, true, true, true, true, true, false, true, true, false, true,
  true, false, true, false, false, false, true, true, true, true, true, false, true, false, true, false, true, true, true, true, true, false, false, true, true, true, true, false, false, false, false, true, false, true, true,
  false, false, false, true, false, true, true, false, true, true, true, false, true, true, false, true, true, true, true, true, false, true, true, false, false, false, true, true, true, true, false, false, false, true, true,
  true, true, false, true, false, false, true, false, false, false, true, false, true, false, true, true, true, false, false, true, false, false, false, false, true, true, false, true, false, true, false, false, true, true, true,
  true, false, false, true, false, true, false, false, true, true, true, true, true, true, false, false, false, true, true, false, true, true, true, false, false, false, false, false, true, true, false, false, false, true, true,
  true, true, true, true, true, true, false, false, true, false, true, true, true, false, true, true, true, true, true, false, true, true, false, false, true, true, true, true, true, false, false, true, false, true, true,
  true, true, true, false, false, true, true, true, true, true, false, true, true, true, true, false, true, true, true, true, true, true, true, false, true, false, true, true, true, true, false, false, true, false, true,
  true, true, true, false, true, false, true, false, true, true, true, true, true, true, true, false, true, false, true, false, true, true, true, true, false, true, true, false, true, false, true, true, true, true, false,
  true, true, true, false, true, true, true, false, true, true, false, false, true, false, true, false, true, false, false, true, false, false, false, true, false, false, true, false, true, true, false, true, false, false, true,
  true, true, true, false, true, false, true, true, true, true, false, true, true, true, false, true, true, true, true, false, true, true, true, false, true, true, true, true, false, true, false, true, false, true, false,
  true, false, false, true, true, true, false, true, true, false, false, true, false, false, true, true, false, false, true, false, true, true, true, false, false, false, true, false, false, true, true, true, true, false, true,
  true, true, true, false, false, false, true, true, true, false, true, true, true, false, true, false, true, true, true, false, true, false, true, true, true, true, false, true, true, false, true, true, true, true, true,
  false, false, true, false, true, false, true, true, true, true, true, true, true, false, false, true, false, true, true, false, true, true, true, true, false, true, false, true, true, true, false, true, false, true, true,
  false, false, false, true, true, true, false, false, true, true, true, false, false, true, true, false, true, false, true, false, true, true, false, false, false, true, true, false, true, false, true, false, false, true, false,
  true, true, false, true, true, true, false, true, true, false, true, false, true, false, false, false, true, true, true, true, false, true, true, true, true, true, true, true, false, false, true, false, true, true, true,
  false, true, false, true, true, false, true, true, true, false, true, true, false, true, false, false, false, false, true, false, false, false, true, false, false, false, false, false, true, false, false, true, false, false, true,
  true, true, false, true, true, true, true, false, false, false, false, false, true, true, true, true, true, true, false, true, true, true, true, true, true, true, true, false, true, true, true, true, false, true, false,
  false, false, true, true, false, false, true, true, true, false, true, true, false, true, false, true, true, true, true, true, true, false, false, false, false, false, true, true, true, true, true, true, true, false, false,
  true, true, true, false, true, true, false, true, false, false, true, false, true, false, false, true, false, true, true, true, true, true, true, true, true, true, false, true, true, false, true, true, true, true, true,
  true, true, true, true, true, false, true, false, true, false, true, false, false, true, false, false, true, true, true, true, true, true, false, true, true, true, false, true, true, false, true, true, true, true, true,
  false, false, false, false, true, false, false, true, true, false, false, true, true, true, true, true, false, false, true, false, false, true, false, false, true, true, false, false, true, true, true, true, false, true, true,
  true, true, false, false, true, true, true, false, false, false, true, false, true, false, false, false, false, true, false, false, true, false, true, true, false, true, false, true, false, true, true, true, true, false, false,
  true, true, false, false, false, false, true, false, true, false, true, false, false, true, false, false, false, true, false, false, false, true, false, false, true, false, true, false, true, false, true, true, true, false, true,
  false, false, true, false, false, false, true, true, false, true, true, false, true, false, true, true, true, false, true, true, true, true, false, true, true, false, true, true, true, false, true, false, true, true, false,
  true, false, true, false, true, true, true, false, true, true, false, false, false, true, false, false, true, true, true, true, true, false, true, true, true, true, true, true, false, true, true, true, true, true, true,
  false, true, true, false, true, true, true, true, false, true, false, false, true, false, false, false, false, false, false, true, true, true, true, false, true, true, false, false, true, false, true, true, true, true, true,
  true, true, true, false, true, true, true, true, false, false, false, true, true, true, true, true, false, true, false, false, true, true, true, true, true, true, true, true, false, false, true, false, true, true, false,
  true, false, true, true, true, true, true, true, true, true, false, true, false, false, false, false, true, true, true, false, true, true, true, true, true, true, true, true, true, true, true, true, true, false, true,
  true, true, true, true, false, true, true, true, true, true, false, false, false, true, true, true, true, true, false, true, false, true, true, true, true, true, false, true, false, true, true, true, true, false, true,
  true, true, true, true, true, false, true, false, true, true, true, true, true, false, true, false, false, true, false, true, true, true, false, true, true, true, true, false, false, true, false, false, true, false, true,
  false, true, true, true, true, true, true, true, false, true, true, true, true, false, false, true, false, false, true, false, true, true, false, true, false, true, true, true, true, false, false, true, false, false, true,
  true, false, false, true, true, false, true, true, false, true, true, false, true, true, true, false, true, false, false, true, true, true, true, false, false, false, true, true, true, true, true, false, true, false, true,
  true, false, true, false, false, true, true, true, true, true, true, false, true, true, true, true, true, true, false, true, false, false, true, false, true, false, true, true, true, false, true, true, true, true, true,
  true, false, true, false, true, true, true, true, true, true, true, true, true, true, false, true, true, false, true, false, true, true, true, true, true, true, true, true, false, false, true, true, true, true, false,
  true, true, false, true, true, false, false, true, true, true, true, false, true, true, true, false, true, true, true, false, true, false, true, true, true, true, false, true, true, true, false, true, false, true, true,
  true, true, true, false, false, true, true, false, true, false, true, true, true, true, true, true, true, true, true, true, true, false, true, false, true, false, true, true, true, true, true, true, true, true, false,
  true, false, false, true, true, true, false, true, false, false, false, true, true, true, false, true, false, false, true, false, true, false, false, true, true, true, false, true, false, true, false, true, true, true, true,
  false, true, false, true, false, true, false, false, false, false, false, true, true, false, true, false, false, false, false, true, true, true, true, false, false, true, false, true, true, true, false, false, true, false, true,
  false, false, false, true, true, false, true, true, false, false, true, true, true, true, true, true, true, true, true, true, false, true, true, true, false, true, true, false, true, false, true, false, true, true, false,
  true, true, true, false, false, true, true, true, true, true, true, true, true, false, true, false, false, true, false, false, true, false, false, true, true, false, true, true, false, true, false, true, true, true, true,
  true, false, true, true, false, false, true, true, true, true, true, false, true, false, true, true, true, true, true, true, true, true, true, true, true, true, true, true, false, true, false, true, true, true, true,
  false, true, true, true, true, true, true, false, false, true, true, true, false, true, true, true, true, true, true, true, false, false, true, true, true, true, true, true, true, true, false, true, true, true, true,
  true, true, true, true, true, false, true, false, false, true, true, false, false, false, false, true, false, true, true, true, true, true, false, false, false, false, false, false, true, true, true, true, true, false, true,
  true, true, true, true, false, true, false, false, true, true, true, true, false, true, false, true, true, true, true, true, true, true, true, true, false, false, true, false, true, false, true, false, false, true, false,
  false, true, true, false, true, true, false, true, true, true, true, false, true, true, true, false, true, true, true, false, true, true, true, true, false, true, false, true, true, false, true, true, true, true, false,
  true, false, true, true, true, true, true, true, false, true, true, false, false, true, false, true, true, false, true, true, true, true, false, true, false, true, true, true, true, true, true, true, true, true, true,
  true, true, false, true, true, true, true, false, true, true, false, true, true, true, true, true, true, false, true, true, false, false, false, true, true, true, true, true, false, false, false, true, false, false, true,
  true, true, true, false, true, false, true, true, false, true, false, true, true, true, true, true, true, false, true, true, false, false, false, false, false, false, false, false, false, true, false, true, true, true, true,
  false, false, true, false, false, false, true, false, true, false, true, true, true, false, false, false, true, false, false, true, true, true, false, false, false, false, false, false, true, true, false, true, false, true, false,
]);
